n_res = 4;
rc = [ 28, 35, 32, 33 ];
n_tasks = 30;
d = [ 8, 6, 8, 6, 8, 6, 2, 8, 2, 4, 7, 4, 3, 7, 5, 5, 3, 10, 7, 8, 6, 2, 3, 10, 3, 8, 4, 4, 5, 4 ];
rr = [| 10, 0, 0, 9, 5, 2, 3, 3, 9, 5, 4, 6, 8, 0, 4, 0, 5, 10, 2, 2, 0, 1, 4, 4, 0, 5, 0, 6, 1, 2
      | 5, 3, 8, 5, 0, 6, 2, 9, 0, 0, 10, 2, 9, 8, 0, 8, 4, 3, 9, 7, 5, 2, 3, 1, 0, 0, 9, 4, 0, 3
      | 3, 0, 3, 2, 0, 0, 2, 10, 2, 9, 0, 10, 10, 9, 10, 9, 1, 9, 0, 2, 2, 7, 10, 0, 7, 7, 10, 4, 0, 8
      | 0, 6, 6, 10, 4, 0, 5, 4, 2, 4, 9, 0, 4, 3, 1, 4, 4, 8, 0, 8, 7, 0, 0, 0, 7, 0, 7, 8, 4, 9 |];
suc = [ { 2 }, 
        { 1 }, 
        { 4 }, 
        { 3 }, 
        { 6 }, 
        { 5 }, 
        { 8 }, 
        { 7 }, 
        { 10 }, 
        { 9 }, 
        { 12 }, 
        { 11 }, 
        { 14 }, 
        { 13 }, 
        { 16 }, 
        { 15 }, 
        { 18 }, 
        { 17 }, 
        { 20 }, 
        { 19 }, 
        { 22 }, 
        { 21 }, 
        { 24 }, 
        { 23 }, 
        { 26 }, 
        { 25 }, 
        { 28 }, 
        { 27 }, 
        { 30 }, 
        { 29 }]; 
